32      4       
10      10      10      10      
0       0       0       0       0       2       2       31      
7       1       0       1       1       2       3       7       
7       4       0       4       3       3       4       20      30      
2       0       1       3       7       2       5       29      
4       0       4       3       3       2       6       13      
1       6       6       2       0       3       8       27      28      
3       4       0       6       4       1       8       
6       5       1       0       3       2       9       26      
7       2       0       5       2       1       10      
2       3       0       3       1       3       11      17      25      
9       4       4       6       0       2       12      19      
7       2       4       0       6       1       14      
2       4       5       6       0       1       14      
8       0       5       5       5       1       15      
4       6       3       0       4       2       16      24      
3       0       3       4       1       3       18      22      23      
4       5       2       5       0       2       18      23      
10      3       0       2       6       1       21      
2       4       0       5       6       1       22      
6       4       0       4       4       1       21      
9       4       2       0       3       1       32      
5       3       0       1       5       1       32      
5       6       5       0       2       1       32      
6       0       5       5       2       1       32      
4       4       3       7       0       1       32      
2       0       6       5       6       1       32      
3       0       8       5       5       1       32      
10      4       0       3       8       1       32      
5       4       5       0       5       1       32      
8       4       0       3       4       1       32      
7       6       4       3       0       1       32      
0       0       0       0       0       0       
